
Gurobi 9.0.3 (win64, Python) logging started Mon Feb 15 12:33:01 2021

Using license file C:\Users\niclas\gurobi.lic
Set parameter LogFile to value gurobi.log

Gurobi 9.0.3 (win64, Python) logging started Mon Feb 15 12:38:06 2021

Using license file C:\Users\niclas\gurobi.lic
Set parameter LogFile to value gurobi.log
Academic license - for non-commercial use only
